// Função objetivo
min: 11 z11 + 10 z10 + 7 z7;

// Conservação do fluxo
E0: x0_2 + x0_3 + x0_4 + x0_5 = z7 + z10 + z11;
E7: -1 x4_7 -1 x5_7 + x7_10 + x7_9 = -1 z7;
E10: x5_10 + x7_10 + x8_10 = z10;
E11: x8_11 + x9_11 = z11;
E2: -1 x0_2 + x2_4 = 0;
E3: -1 x0_3 + x3_5 + x3_6 = 0;
E4: -1 x0_4 -1 x2_4 + x4_6 + x4_7 + x4_8 = 0;
E5: -1 x0_5 -1 x3_5 + x5_10 + x5_7 + x5_8 + x5_9 = 0;
E6: -1 x3_6 -1 x4_6 + x6_8 + x6_9 = 0;
E8: -1 x4_8 -1 x5_8 -1 x6_8 + x8_10 + x8_11 = 0;
E9: -1 x5_9 -1 x6_9 -1 x7_9 + x9_11 = 0;

// Satisfação da demanda
T2: x0_2 + x2_4 + x4_6 + x6_8 + x8_10 + x3_5 + x5_7 + x7_9 + x9_11 >= 17;
T3: x0_3 + x3_6 + x6_9 + x4_7 + x7_10 + x5_8 + x8_11 >= 10;
T4: x0_4 + x4_8 + x5_9 >= 8;
T5: x0_5 + x5_10 >= 5;

// Capacidade dos contentores
z10 <= 7;
z7  <= 4;

// Definição de variáveis inteiras
int z11, z10, z7, x0_2, x2_4, x4_6, x6_8, x8_10, x3_5, x5_7, x7_9, x9_11,
    x0_3, x3_6, x6_9, x4_7, x7_10, x5_8, x8_11,
    x0_4, x4_8, x5_9, x0_5, x5_10;